100 10
944 292
675 540
370 118
712 468
401 182
188 81
483 216
514 687
656 762
942 680
379 175
310 62
862 475
657 675
477 397
383 435
679 875
354 696
58 233
802 85
268 468
665 703
529 157
599 274
407 488
450 237
391 394
241 431
403 360
622 607
355 82
723 344
86 439
404 318
600 595
214 432
340 102
388 208
778 654
566 690
800 347
749 598
540 559
112 646
680 730
623 307
267 498
498 187
498 340
402 267
413 472
828 862
383 644
690 386
86 252
432 532
484 348
495 319
426 350
264 533
260 415
360 496
650 222
617 508
294 637
946 352
344 373
49 560
180 513
557 351
739 563
493 456
594 399
240 568
576 772
958 112
527 330
109 655
525 385
349 442
520 364
868 864
521 214
651 535
289 387
128 445
839 811
132 246
338 478
30 76
404 22
104 472
267 273
626 542
512 384
369 269
340 350
335 339
538 364
288 156
